h = 12;
w = 12;
n_pieces = 8;
n_shapes = 15;
shape = [{1}, {2}, {3}, {4}, {5}, {6}, {7}, {8}, {9}, {10}, {11}, {12}, {13}, {14}, {15}];
shape_index = [{1}, {2, 3}, {4, 5}, {6, 7}, {8, 9}, {10, 11}, {12, 13}, {14, 15}];
rect_rep = [1, 1, 1, 1, 1, 1, 1, 1];
rect_copies = 8;
coordinate_shapes = [0, 1, 2, 3, 4, 5, 6, 7];
rect_size = [|3, 3
|3, 4
|4, 3
|3, 5
|5, 3
|3, 6
|6, 3
|3, 7
|7, 3
|3, 8
|8, 3
|3, 9
|9, 3
|6, 3
|3, 6
|];
rect_offset = [|0, 0
|0, 0
|0, 0
|0, 0
|0, 0
|0, 0
|0, 0
|0, 0
|0, 0
|0, 0
|0, 0
|0, 0
|0, 0
|0, 0
|0, 0
|];
rectangles = [|3, 3
|3, 4
|3, 5
|3, 6
|3, 7
|3, 8
|3, 9
|6, 3
|];
